Maximize
    u
Subject to 
    u - 2 x5 - 2 x7 - 2 x9 + x1 + 3 x3 <= 0
    u - 4 x1 - 4 x7 - 4 x9 + 3 x3 + 5 x5 <= 0
    u - 6 x1 - 6 x3 - 6 x9 + 5 x5 + 7 x7 <= 0
    u - 8 x1 - 8 x3 - 8 x5 + 7 x7 + 9 x9 <= 0
    x1 + x3 + x5 + x7 + x9 = 1
    x1 >= 0
    x3 >= 0
    x5 >= 0
    x7 >= 0
    x9 >= 0
End